12° run output:
{
    "Function": "kroA400.tsp",
    "Problem dimension": [
        346,
        18,
        344,
        164,
        143,
        368,
        213,
        372,
        348,
        268,
        77,
        3,
        32,
        165,
        202,
        193,
        287,
        380,
        108,
        66,
        236,
        70,
        73,
        80,
        2,
        40,
        305,
        186,
        396,
        275,
        196,
        162,
        342,
        55,
        321,
        235,
        26,
        34,
        25,
        325,
        99,
        231,
        170,
        144,
        103,
        91,
        65,
        96,
        137,
        371,
        86,
        51,
        31,
        121,
        178,
        234,
        56,
        386,
        78,
        14,
        9,
        200,
        246,
        19,
        141,
        24,
        38,
        209,
        248,
        35,
        151,
        233,
        281,
        310,
        180,
        181,
        217,
        261,
        255,
        195,
        42,
        177,
        309,
        27,
        354,
        169,
        81,
        265,
        156,
        7,
        102,
        243,
        72,
        95,
        355,
        282,
        11,
        319,
        331,
        237,
        191,
        258,
        222,
        150,
        67,
        343,
        113,
        288,
        283,
        398,
        136,
        299,
        53,
        337,
        241,
        173,
        298,
        286,
        313,
        376,
        351,
        322,
        16,
        387,
        107,
        122,
        182,
        218,
        340,
        166,
        297,
        215,
        13,
        300,
        50,
        28,
        62,
        49,
        168,
        225,
        349,
        133,
        306,
        129,
        238,
        71,
        1,
        61,
        266,
        316,
        267,
        356,
        15,
        254,
        263,
        167,
        242,
        163,
        229,
        279,
        295,
        252,
        294,
        82,
        104,
        20,
        68,
        0,
        272,
        115,
        251,
        385,
        109,
        48,
        328,
        85,
        204,
        227,
        36,
        152,
        364,
        292,
        117,
        359,
        145,
        303,
        352,
        269,
        127,
        142,
        245,
        326,
        274,
        176,
        192,
        146,
        197,
        256,
        98,
        273,
        6,
        47,
        220,
        388,
        138,
        399,
        88,
        41,
        239,
        308,
        10,
        341,
        289,
        172,
        75,
        214,
        4,
        392,
        128,
        101,
        232,
        291,
        240,
        383,
        336,
        30,
        79,
        174,
        189,
        216,
        228,
        250,
        37,
        124,
        45,
        111,
        223,
        84,
        212,
        69,
        116,
        226,
        314,
        264,
        247,
        219,
        318,
        365,
        205,
        366,
        148,
        367,
        270,
        302,
        382,
        161,
        249,
        135,
        89,
        244,
        353,
        58,
        375,
        155,
        159,
        210,
        307,
        153,
        160,
        185,
        335,
        139,
        311,
        184,
        363,
        369,
        21,
        285,
        179,
        381,
        347,
        271,
        94,
        350,
        330,
        389,
        361,
        44,
        333,
        132,
        100,
        59,
        320,
        293,
        22,
        339,
        5,
        260,
        301,
        277,
        393,
        39,
        230,
        60,
        147,
        119,
        203,
        190,
        373,
        377,
        118,
        74,
        362,
        149,
        29,
        394,
        276,
        390,
        206,
        358,
        374,
        304,
        257,
        208,
        87,
        154,
        90,
        379,
        262,
        171,
        317,
        17,
        120,
        175,
        334,
        194,
        112,
        338,
        54,
        12,
        397,
        323,
        378,
        131,
        157,
        158,
        23,
        384,
        280,
        221,
        183,
        332,
        125,
        105,
        188,
        296,
        201,
        57,
        395,
        114,
        46,
        64,
        278,
        140,
        253,
        357,
        97,
        391,
        315,
        134,
        324,
        130,
        284,
        110,
        43,
        259,
        123,
        187,
        312,
        52,
        370,
        224,
        199,
        329,
        83,
        8,
        33,
        106,
        207,
        92,
        198,
        360,
        126,
        63,
        93,
        211,
        327,
        76,
        290,
        345
    ],
    "Global Optimum": 0,
    "Algorithm": "Genetic algorithm",
    "Parameters": {
        "population": 30,
        "offspring": 30,
        "mutation probability": 0.0025,
        "crossover probability": 0.9
    },
    "Fitness": 489065,
    "Solution": [
        346,
        18,
        344,
        164,
        143,
        368,
        213,
        372,
        348,
        268,
        77,
        3,
        32,
        165,
        202,
        193,
        287,
        380,
        108,
        66,
        236,
        70,
        73,
        80,
        2,
        40,
        305,
        186,
        396,
        275,
        196,
        162,
        342,
        55,
        321,
        235,
        26,
        34,
        25,
        325,
        99,
        231,
        170,
        144,
        103,
        91,
        65,
        96,
        137,
        371,
        86,
        51,
        31,
        121,
        178,
        234,
        56,
        386,
        78,
        14,
        9,
        200,
        246,
        19,
        141,
        24,
        38,
        209,
        248,
        35,
        151,
        233,
        281,
        310,
        180,
        181,
        217,
        261,
        255,
        195,
        42,
        177,
        309,
        27,
        354,
        169,
        81,
        265,
        156,
        7,
        102,
        243,
        72,
        95,
        355,
        282,
        11,
        319,
        331,
        237,
        191,
        258,
        222,
        150,
        67,
        343,
        113,
        288,
        283,
        398,
        136,
        299,
        53,
        337,
        241,
        173,
        298,
        286,
        313,
        376,
        351,
        322,
        16,
        387,
        107,
        122,
        182,
        218,
        340,
        166,
        297,
        215,
        13,
        300,
        50,
        28,
        62,
        49,
        168,
        225,
        349,
        133,
        306,
        129,
        238,
        71,
        1,
        61,
        266,
        316,
        267,
        356,
        15,
        254,
        263,
        167,
        242,
        163,
        229,
        279,
        295,
        252,
        294,
        82,
        104,
        20,
        68,
        0,
        272,
        115,
        251,
        385,
        109,
        48,
        328,
        85,
        204,
        227,
        36,
        152,
        364,
        292,
        117,
        359,
        145,
        303,
        352,
        269,
        127,
        142,
        245,
        326,
        274,
        176,
        192,
        146,
        197,
        256,
        98,
        273,
        6,
        47,
        220,
        388,
        138,
        399,
        88,
        41,
        239,
        308,
        10,
        341,
        289,
        172,
        75,
        214,
        4,
        392,
        128,
        101,
        232,
        291,
        240,
        383,
        336,
        30,
        79,
        174,
        189,
        216,
        228,
        250,
        37,
        124,
        45,
        111,
        223,
        84,
        212,
        69,
        116,
        226,
        314,
        264,
        247,
        219,
        318,
        365,
        205,
        366,
        148,
        367,
        270,
        302,
        382,
        161,
        249,
        135,
        89,
        244,
        353,
        58,
        375,
        155,
        159,
        210,
        307,
        153,
        160,
        185,
        335,
        139,
        311,
        184,
        363,
        369,
        21,
        285,
        179,
        381,
        347,
        271,
        94,
        350,
        330,
        389,
        361,
        44,
        333,
        132,
        100,
        59,
        320,
        293,
        22,
        339,
        5,
        260,
        301,
        277,
        393,
        39,
        230,
        60,
        147,
        119,
        203,
        190,
        373,
        377,
        118,
        74,
        362,
        149,
        29,
        394,
        276,
        390,
        206,
        358,
        374,
        304,
        257,
        208,
        87,
        154,
        90,
        379,
        262,
        171,
        317,
        17,
        120,
        175,
        334,
        194,
        112,
        338,
        54,
        12,
        397,
        323,
        378,
        131,
        157,
        158,
        23,
        384,
        280,
        221,
        183,
        332,
        125,
        105,
        188,
        296,
        201,
        57,
        395,
        114,
        46,
        64,
        278,
        140,
        253,
        357,
        97,
        391,
        315,
        134,
        324,
        130,
        284,
        110,
        43,
        259,
        123,
        187,
        312,
        52,
        370,
        224,
        199,
        329,
        83,
        8,
        33,
        106,
        207,
        92,
        198,
        360,
        126,
        63,
        93,
        211,
        327,
        76,
        290,
        345
    ],
    "Nb of functions evaluations": 50010,
    "Computational time in seconds": 242.28339982032776,
    "Stopping criterion in evaluations": 50000
}